language ESSENCE 1.5

$    ##########
$    ##########
$    ##########
$    ##########
$    #####.####
$    ####.#####
$    ##########
$    ######.###
$    ###.##..##
$    ...######.


letting nRows be 10
letting nCols be 10
letting maxRules be 3
letting rowRules be [[10,0,0]
,[10,0,0]
,[10,0,0]
,[10,0,0]
,[5,4,0]
,[4,5,0]
,[10,0,0]
,[6,3,0]
,[3,2,2]
,[6,0,0]]
letting colRules be [[9,0,0]
,[9,0,0]
,[9,0,0]
,[8,1,0]
,[5,4,0]
,[4,5,0]
,[7,1,0]
,[8,1,0]
,[10,0,0]
,[9,0,0]]

